!TPSSh def2-TZVP freq d3 TightSCF SlowConv defgrid2
 
%pal
nprocs 20
end
 
%scf
MaxIter 1500
end
 
%maxcore 8000
 
!CPCM
%cpcm smd true
SMDsolvent "ACETONITRILE"
end
 
* xyz -1 2
6        4.875657000      0.076205000     -0.271273000
8        5.265071000     -0.207387000     -1.438759000
8        5.262338000      1.301339000      0.324235000
1        5.776423000      1.744204000     -0.371072000
6        3.593494000     -0.413055000      0.297990000
6        2.244133000      0.219088000     -0.202147000
6        0.886399000     -0.452572000      0.186412000
6       -0.393504000      0.423787000     -0.021534000
6       -1.739674000     -0.378091000     -0.028539000
6       -3.006342000      0.508771000      0.208423000
6       -4.357197000     -0.161683000     -0.199230000
9        3.464227000     -1.768109000      0.024066000
9        3.568254000     -0.254888000      1.676417000
9        2.202429000      1.509604000      0.245673000
9        2.282993000      0.250895000     -1.565559000
9        0.741311000     -1.584227000     -0.551528000
9        0.923612000     -0.800870000      1.498512000
9       -0.451512000      1.344083000      0.970581000
9       -0.297462000      1.074910000     -1.205716000
9       -1.704296000     -1.317040000      0.945035000
9       -1.866620000     -1.002511000     -1.221139000
9       -2.896029000      1.655381000     -0.499780000
9       -3.084133000      0.815741000      1.519722000
9       -4.463073000     -1.383733000      0.333885000
9       -5.366244000      0.590581000      0.254509000
9       -4.465284000     -0.256681000     -1.526307000
*
