!TPSSh def2-TZVP freq d3 TightSCF SlowConv defgrid2
 
%pal
nprocs 20
end
 
%scf
MaxIter 1500
end
 
%maxcore 8000
 
!CPCM
%cpcm smd true
SMDsolvent "ACETONITRILE"
end
 
* xyz -2 2
6        4.998807000      0.209001000     -0.291898000
8        5.467221000     -0.272632000     -1.340122000
8        5.375721000      1.170379000      0.407391000
6        3.689726000     -0.486996000      0.243441000
6        2.386567000      0.311254000     -0.056249000
6        1.005348000     -0.412883000      0.039039000
6       -0.358393000      0.357313000      0.031661000
6       -1.823022000     -0.243556000     -0.009736000
6       -3.209270000      0.489358000     -0.013729000
6       -4.585261000     -0.212163000     -0.050291000
9        3.536911000     -1.744599000     -0.291117000
9        3.760308000     -0.668837000      1.605260000
9        2.352936000      1.378652000      0.798445000
9        2.493138000      0.808936000     -1.327616000
9        0.957832000     -1.288074000     -1.022377000
9        1.026362000     -1.147509000      1.203178000
9       -0.338705000      1.147297000      1.171492000
9       -0.293570000      1.181801000     -1.089739000
9       -1.883213000     -1.073560000      1.112225000
9       -1.848675000     -1.027053000     -1.160874000
9       -3.209759000      1.315159000     -1.121504000
9       -3.243127000      1.270069000      1.124810000
9       -4.744794000     -1.009254000      1.021677000
9       -5.654481000      0.646857000     -0.051208000
9       -4.707200000     -0.965406000     -1.158615000
*
