!r2scanh def2-TZVP opt d3 TightSCF SlowConv defgrid2
 
%pal
nprocs 20
end
 
%scf
MaxIter 1500
end
 
%maxcore 8000
 
!CPCM
%cpcm smd true
SMDsolvent "ACETONITRILE"
end
 
* xyz 0 2
6        4.636299000     -0.313458000      0.075709000
8        5.027443000     -1.232081000     -0.785503000
8        5.257718000      0.629238000      0.467919000
6        3.187507000     -0.573006000      0.547267000
6        2.178704000      0.241611000     -0.307429000
6        0.698689000     -0.204250000     -0.127512000
6       -0.349256000      0.856773000     -0.575380000
6       -1.731527000      0.297783000     -0.684271000
6       -2.826244000      0.516795000      0.301655000
6       -3.995320000     -0.489383000      0.157184000
9        2.870037000     -1.877516000      0.458808000
9        3.082210000     -0.188590000      1.827406000
9        2.304000000      1.537453000      0.017602000
9        2.511703000      0.091542000     -1.601572000
9        0.498364000     -1.312432000     -0.860422000
9        0.467618000     -0.493145000      1.162549000
9       -0.351777000      1.864897000      0.315147000
9        0.039047000      1.328251000     -1.780373000
9       -2.020682000     -0.329650000     -1.803818000
9       -3.359614000      1.760553000      0.193639000
9       -2.340758000      0.402929000      1.555714000
9       -3.538607000     -1.735564000      0.222330000
9       -4.858695000     -0.296368000      1.146446000
9       -4.626179000     -0.317404000     -0.998103000
1        5.935640000     -1.028007000     -1.076694000
*
