!B3LYP def2-TZVP opt d3 TightSCF SlowConv defgrid2
 
%pal
nprocs 20
end
 
%scf
MaxIter 1500
end
 
%maxcore 8000
 
!CPCM
%cpcm smd true
SMDsolvent "ACETONITRILE"
end
 
* xyz -1 2
6        6.992928000     27.098045000      1.664532000
6        6.311424000     25.766782000      2.122231000
6        7.295670000     24.572066000      2.332730000
6        6.678619000     23.352274000      3.110800000
6        7.484980000     22.100285000      2.967949000
6        7.067558000     20.776409000      2.389511000
6        7.131455000     20.693211000      0.838556000
6        6.789186000     19.270855000      0.256054000
9        7.761305000     26.892501000      0.592615000
9        7.738658000     27.614571000      2.641789000
9        6.039635000     27.976732000      1.346754000
9        5.659920000     26.021745000      3.275301000
9        5.411173000     25.430419000      1.178697000
9        7.701004000     24.143535000      1.118890000
9        8.376044000     25.006398000      3.015511000
9        6.609323000     23.711053000      4.425177000
9        5.419530000     23.146781000      2.667946000
9        8.778682000     22.239658000      3.216238000
9        7.898902000     19.825314000      2.896955000
9        5.803154000     20.482434000      2.785314000
9        6.279357000     21.640893000      0.358313000
9        8.392501000     21.080809000      0.482763000
8        7.757619000     18.503774000      0.130638000
8        5.588649000     19.082332000      0.002510000
8        3.247430000     20.548142000      0.339377000
1        2.630256000     19.817079000      0.465852000
1        4.117097000     20.114159000      0.206708000
1        9.453261000     18.652607000      0.741602000
8       10.353719000     18.667027000      1.130179000
1       10.380375000     19.490245000      1.631195000
*
