!TPSSh def2-TZVP freq d3 TightSCF SlowConv defgrid2
 
%pal
nprocs 20
end
 
%scf
MaxIter 1500
end
 
%maxcore 8000
 
!CPCM
%cpcm smd true
SMDsolvent "ACETONITRILE"
end
 
* xyz 0 2
6        4.419319000      0.377438000     -0.195481000
8        5.376417000     -0.368469000     -0.732004000
8        4.341672000      1.575648000     -0.200764000
6        3.321153000     -0.501178000      0.462286000
6        2.195472000     -0.761515000     -0.487227000
6        0.807697000     -1.205645000     -0.138859000
6       -0.244893000     -0.043964000     -0.165461000
6       -1.739722000     -0.507513000     -0.127087000
6       -2.728234000      0.624987000      0.312340000
6       -4.221357000      0.361913000     -0.063888000
9        3.856766000     -1.679762000      0.915627000
9        2.855876000      0.154059000      1.561190000
9        2.461898000     -0.633021000     -1.780713000
9        0.399941000     -2.153039000     -1.027428000
9        0.819893000     -1.745362000      1.103323000
9       -0.001209000      0.758832000      0.894327000
9       -0.050799000      0.667697000     -1.297855000
9       -1.866817000     -1.536289000      0.738172000
9       -2.085667000     -0.939223000     -1.359404000
9       -2.363698000      1.791868000     -0.261967000
9       -2.661326000      0.761707000      1.652012000
9       -4.601875000     -0.857094000      0.332625000
9       -4.985818000      1.270521000      0.550030000
9       -4.409399000      0.469729000     -1.380752000
1        6.033543000      0.219590000     -1.158456000
*
