!r2scanh def2-TZVP opt d3 TightSCF SlowConv defgrid2
 
%pal
nprocs 20
end
 
%scf
MaxIter 1500
end
 
%maxcore 8000
 
!CPCM
%cpcm smd true
SMDsolvent "ACETONITRILE"
end
 
* xyz -2 2
6        7.328220000     27.755594000      2.876578000
6        6.820965000     26.309455000      3.032926000
6        7.274303000     25.165474000      2.088433000
6        6.774651000     23.685702000      2.138104000
6        7.229332000     22.496223000      1.239361000
6        6.750621000     21.031882000      1.438646000
6        7.048865000     19.957859000      0.358182000
6        6.754127000     18.506280000      0.820075000
9        6.985453000     28.256255000      1.688590000
9        8.656796000     27.805305000      2.989728000
9        6.822452000     28.584561000      3.816476000
9        7.167865000     25.948073000      4.301633000
9        5.461373000     26.393804000      2.951212000
9        6.971513000     25.609662000      0.817270000
9        8.642477000     25.102672000      2.238850000
9        7.054634000     23.270379000      3.433068000
9        5.409800000     23.767118000      1.973555000
9        6.882983000     22.843588000     -0.042442000
9        8.597429000     22.456969000      1.332065000
9        7.296910000     20.595548000      2.606957000
9        5.398590000     21.055361000      1.595425000
9        6.310776000     20.272578000     -0.741120000
9        8.360010000     20.090043000      0.000095000
8        7.695888000     17.910855000      1.379254000
8        5.592031000     18.105045000      0.620357000
8        3.319677000     19.185173000     -0.474923000
1        2.789903000     18.388572000     -0.559637000
1        4.178908000     18.870087000     -0.127400000
1        9.203249000     18.624564000      1.959406000
8       10.028849000     19.008740000      2.325781000
1        9.895566000     19.957418000      2.227714000
*
