!TPSSh def2-TZVP freq d3 TightSCF SlowConv defgrid2
 
%pal
nprocs 20
end
 
%scf
MaxIter 1500
end
 
%maxcore 8000
 
!CPCM
%cpcm smd true
SMDsolvent "ACETONITRILE"
end
 
* xyz 0 2
6        4.253038000     -0.329911000      0.633454000
8        5.027057000     -1.131046000     -0.088355000
8        4.603585000      0.477554000      1.450305000
6        2.760576000     -0.544160000      0.280345000
6        2.284900000      0.291150000     -0.951020000
6        0.855980000      0.055837000     -1.351758000
6       -0.378194000      0.758194000     -0.876926000
6       -1.502410000     -0.228568000     -0.397197000
6       -2.602008000      0.447022000      0.487544000
6       -3.928198000     -0.370548000      0.603490000
9        2.507934000     -1.849919000      0.010074000
9        2.013231000     -0.178886000      1.345800000
9        2.485682000      1.601733000     -0.664338000
9        3.078959000     -0.046525000     -2.002245000
9        0.654990000     -0.948857000     -2.192152000
9       -0.068365000      1.588311000      0.145881000
9       -0.905952000      1.512634000     -1.885459000
9       -0.926521000     -1.214071000      0.328223000
9       -2.083609000     -0.784840000     -1.482560000
9       -2.916834000      1.658694000     -0.019292000
9       -2.111318000      0.613079000      1.732644000
9       -3.673610000     -1.642047000      0.930942000
9       -4.688400000      0.174661000      1.558549000
9       -4.608048000     -0.345179000     -0.544665000
1        5.963714000     -0.961023000      0.141447000
*
