!TPSSh def2-TZVP freq d3 TightSCF SlowConv defgrid2
 
%pal
nprocs 20
end
 
%scf
MaxIter 1500
end
 
%maxcore 8000
 
!CPCM
%cpcm smd true
SMDsolvent "ACETONITRILE"
end
 
* xyz -2 2
6        6.846104000     28.317698000      2.667395000
6        6.293255000     26.879872000      2.808606000
6        6.914406000     25.623981000      2.111091000
6        6.432722000     24.117409000      2.166391000
6        7.058936000     22.862485000      1.466835000
6        6.532725000     21.406706000      1.684543000
6        7.028640000     20.255353000      0.759074000
6        6.712072000     18.818524000      1.304835000
9        6.818023000     28.717872000      1.384189000
9        8.115715000     28.388619000      3.105151000
9        6.139437000     29.247201000      3.378939000
9        6.307671000     26.628283000      4.163873000
9        4.983883000     26.962517000      2.386097000
9        6.901761000     25.943884000      0.754399000
9        8.230224000     25.595227000      2.560451000
9        6.444653000     23.803459000      3.524614000
9        5.117428000     24.159560000      1.724194000
9        6.986309000     23.104550000      0.111994000
9        8.386885000     22.845947000      1.833398000
9        6.839534000     21.058698000      2.972764000
9        5.167580000     21.440783000      1.583917000
9        6.460840000     20.443379000     -0.476966000
9        8.381166000     20.419450000      0.583177000
8        7.634728000     18.264725000      1.921182000
8        5.545319000     18.414707000      1.075742000
8        3.431456000     19.007326000     -0.549779000
1        2.704332000     18.810685000      0.055103000
1        4.242951000     18.878418000     -0.000589000
*
