!TPSSh def2-TZVP freq d3 TightSCF SlowConv defgrid2
 
%pal
nprocs 20
end
 
%scf
MaxIter 1500
end
 
%maxcore 8000
 
!CPCM
%cpcm smd true
SMDsolvent "ACETONITRILE"
end
 
* xyz -1 2
6        3.957348000      0.542639000     -1.250478000
8        4.443986000     -0.252664000     -2.069155000
8        3.879459000      1.784970000     -1.239904000
6        3.308008000     -0.122027000      0.031213000
6        1.772591000      0.099396000      0.110083000
6        0.959022000     -0.863241000      1.037281000
6       -0.460066000     -0.425144000      1.275775000
6       -1.686356000     -0.759671000      0.487756000
6       -2.548277000      0.496505000      0.123186000
6       -3.630746000      0.262935000     -0.975639000
9        3.533259000     -1.470751000      0.085545000
9        3.865154000      0.402091000      1.170529000
9        1.516277000      1.360249000      0.544416000
9        1.251766000     -0.026983000     -1.141404000
9        0.960035000     -2.109215000      0.501797000
9        1.587882000     -0.910904000      2.244708000
9       -0.645865000      0.405551000      2.293893000
9       -2.495213000     -1.602781000      1.201827000
9       -1.341696000     -1.394004000     -0.656929000
9       -1.726978000      1.474908000     -0.319646000
9       -3.176893000      0.931969000      1.235869000
9       -4.390684000     -0.797269000     -0.681383000
9       -4.416485000      1.343580000     -1.045073000
9       -3.065047000      0.073903000     -2.169816000
*
