!TPSSh def2-TZVP freq d3 TightSCF SlowConv defgrid2
 
%pal
nprocs 20
end
 
%scf
MaxIter 1500
end
 
%maxcore 8000
 
!CPCM
%cpcm smd true
SMDsolvent "ACETONITRILE"
end
 
* xyz 0 2
6        4.673008000     -0.291836000      0.064955000
8        5.058702000     -1.259021000     -0.756468000
8        5.306029000      0.668564000      0.410143000
6        3.219799000     -0.527107000      0.558023000
6        2.190350000      0.247447000     -0.325552000
6        0.703525000     -0.196795000     -0.125596000
6       -0.365232000      0.841997000     -0.608927000
6       -1.751913000      0.272342000     -0.689486000
6       -2.851891000      0.509509000      0.294155000
6       -4.021332000     -0.515963000      0.194709000
9        2.905288000     -1.844726000      0.541519000
9        3.125286000     -0.080686000      1.828921000
9        2.310002000      1.564952000     -0.051435000
9        2.522047000      0.052116000     -1.623828000
9        0.505713000     -1.344433000     -0.812891000
9        0.478253000     -0.439126000      1.184332000
9       -0.366490000      1.889886000      0.249499000
9        0.008814000      1.280421000     -1.840563000
9       -2.055595000     -0.364050000     -1.809320000
9       -3.401853000      1.753747000      0.145244000
9       -2.358098000      0.446748000      1.557736000
9       -3.552614000     -1.765679000      0.289932000
9       -4.878520000     -0.302677000      1.196924000
9       -4.677590000     -0.385446000     -0.961817000
1        5.970632000     -1.073214000     -1.061909000
*
