!TPSSh def2-TZVP freq d3 TightSCF SlowConv defgrid2
 
%pal
nprocs 20
end
 
%scf
MaxIter 1500
end
 
%maxcore 8000
 
!CPCM
%cpcm smd true
SMDsolvent "ACETONITRILE"
end
 
* xyz -1 1
6        7.532603000     27.489455000      3.052301000
6        6.642527000     26.278979000      2.624243000
6        7.447820000     25.041555000      2.102473000
6        6.616000000     23.712985000      2.103896000
6        7.227649000     22.593686000      1.193221000
6        6.686639000     21.159845000      1.510636000
6        6.920042000     20.103543000      0.392428000
6        6.752421000     18.629512000      0.924047000
9        8.413523000     27.790108000      2.092045000
9        8.192613000     27.222714000      4.180838000
9        6.747249000     28.550582000      3.261013000
9        5.900593000     25.920561000      3.694438000
9        5.817295000     26.703337000      1.646372000
9        7.858787000     25.309328000      0.844092000
9        8.536955000     24.868043000      2.881348000
9        6.548344000     23.260823000      3.374406000
9        5.364515000     23.984207000      1.673321000
9        6.950657000     22.901065000     -0.092898000
9        8.570594000     22.595164000      1.357410000
9        7.297928000     20.730575000      2.642893000
9        5.357218000     21.246179000      1.758984000
9        6.041471000     20.358586000     -0.618160000
9        8.172752000     20.307113000     -0.115771000
8        7.807800000     18.048051000      1.233451000
8        5.574153000     18.231462000      0.982291000
8        3.080653000     19.066976000      0.097957000
1        2.641486000     18.208749000      0.032068000
1        3.997236000     18.848301000      0.378512000
1        9.407189000     18.757821000      1.610212000
8       10.295669000     19.083049000      1.881903000
1       10.303834000     20.008488000      1.604251000
*
