!r2scanh def2-TZVP opt d3 TightSCF SlowConv defgrid2
 
%pal
nprocs 20
end
 
%scf
MaxIter 1500
end
 
%maxcore 8000
 
!CPCM
%cpcm smd true
SMDsolvent "ACETONITRILE"
end
 
* xyz -1 1
6        7.061480798     27.780530965      3.106576640
6        6.358244798     26.583375965      2.416992640
6        7.290739798     25.361615965      2.191470640
6        6.503816798     24.050508965      1.905927640
6        7.390081798     22.949036965      1.254848640
6        6.769590798     21.526080965      1.366223640
6        7.389881798     20.495443965      0.400529640
6        7.047594798     19.000380965      0.790287640
9        8.211006798     28.061334965      2.509442640
9        7.286980798     27.526353965      4.384782640
9        6.271788798     28.845445965      3.024205640
9        5.320618798     26.239799965      3.188367640
9        5.906995798     27.014763965      1.236217640
9        8.092105798     25.656497965      1.162788640
9        8.034091798     25.196969965      3.293178640
9        6.010694798     23.624429965      3.072509640
9        5.491631798     24.352956965      1.082460640
9        7.554809798     23.292706965     -0.028459360
9        8.581822798     22.977688965      1.870991640
9        6.960326798     21.133942965      2.637027640
9        5.455181798     21.663434965      1.139465640
9        6.910796798     20.782536965     -0.839488360
9        8.723370798     20.748082965      0.370020640
8        8.017941798     18.242246965      0.795072640
8        5.838755798     18.846145965      1.003745640
8        3.022589945     18.615377681      1.418469618
1        2.921133959     17.670398128      1.249412630
1        3.952270754     18.785006115      1.221543930
1        9.651244624     17.272645385      0.841919800
8       10.455174784     16.738287734      0.846178529
1       10.221449611     15.976809483      1.391507198
*
