!r2scanh def2-TZVP freq d3 TightSCF SlowConv defgrid2
 
%pal
nprocs 20
end
 
%scf
MaxIter 1500
end
 
%maxcore 8000
 
!CPCM
%cpcm smd true
SMDsolvent "ACETONITRILE"
end
 
* xyz -1 2
6        4.504089000     -0.112913000     -0.891161000
8        4.847997000     -1.054391000     -1.612410000
8        4.882916000      1.065019000     -0.828992000
6        3.368574000     -0.442247000      0.147923000
6        2.050457000      0.299773000     -0.173542000
6        0.788253000     -0.297101000      0.514160000
6       -0.434062000      0.666841000      0.547779000
6       -1.707202000     -0.046377000      0.859083000
6       -3.081248000      0.422278000      0.496161000
6       -3.678415000     -0.258634000     -0.760884000
9        3.081922000     -1.770538000      0.193797000
9        3.752813000     -0.085493000      1.404166000
9        2.157132000      1.591021000      0.187661000
9        1.849720000      0.248028000     -1.508251000
9        0.417709000     -1.407194000     -0.150173000
9        1.086849000     -0.630759000      1.782247000
9       -0.188023000      1.634098000      1.468392000
9       -0.549782000      1.272646000     -0.652850000
9       -1.647344000     -1.061142000      1.696067000
9       -3.070268000      1.750134000      0.263753000
9       -3.923758000      0.162679000      1.516456000
9       -3.705123000     -1.577195000     -0.590443000
9       -4.917112000      0.172226000     -0.968668000
9       -2.942307000      0.024187000     -1.829864000
*
