!r2scanh def2-TZVP freq d3 TightSCF SlowConv defgrid2
 
%pal
nprocs 20
end
 
%scf
MaxIter 1500
end
 
%maxcore 8000
 
!CPCM
%cpcm smd true
SMDsolvent "ACETONITRILE"
end
 
* xyz -1 2
6        4.835201000      0.039013000     -0.250685000
8        5.202158000     -0.354253000     -1.390952000
8        5.151927000      1.350643000      0.171287000
1        5.635632000      1.722405000     -0.578539000
6        3.548180000     -0.393124000      0.359997000
6        2.228250000      0.233087000     -0.185205000
6        0.887680000     -0.459319000      0.197054000
6       -0.377165000      0.426957000      0.005039000
6       -1.708893000     -0.380089000     -0.039700000
6       -2.964881000      0.495263000      0.237731000
6       -4.296398000     -0.145895000     -0.238827000
9        3.398934000     -1.747737000      0.189597000
9        3.530570000     -0.137362000      1.712781000
9        2.162356000      1.518341000      0.236924000
9        2.290762000      0.239357000     -1.536757000
9        0.742880000     -1.566043000     -0.559260000
9        0.929412000     -0.828628000      1.492077000
9       -0.445869000      1.305869000      1.020546000
9       -0.269020000      1.107465000     -1.149692000
9       -1.670343000     -1.354520000      0.884074000
9       -1.832979000     -0.941877000     -1.253269000
9       -2.839121000      1.677726000     -0.386028000
9       -3.062836000      0.706563000      1.556950000
9       -4.384582000     -1.402962000      0.183134000
9       -5.310975000      0.546926000      0.266108000
9       -4.385908000     -0.124062000     -1.561513000
*
