!r2scanh def2-TZVP freq d3 TightSCF SlowConv defgrid2
 
%pal
nprocs 20
end
 
%scf
MaxIter 1500
end
 
%maxcore 8000
 
!CPCM
%cpcm smd true
SMDsolvent "ACETONITRILE"
end
 
* xyz -2 2
6        7.313427000     27.768920000      2.850998000
6        6.810116000     26.325526000      3.038166000
6        7.247644000     25.173428000      2.097130000
6        6.787514000     23.682303000      2.188473000
6        7.209078000     22.507122000      1.256274000
6        6.754687000     21.035010000      1.457811000
6        7.056455000     19.958228000      0.382642000
6        6.732321000     18.510306000      0.835337000
9        6.951023000     28.246732000      1.659323000
9        8.643008000     27.824789000      2.945878000
9        6.815424000     28.613611000      3.782245000
9        7.177325000     25.978463000      4.305839000
9        5.449631000     26.409243000      2.976918000
9        6.879697000     25.589996000      0.834116000
9        8.621618000     25.143530000      2.186110000
9        7.159304000     23.279035000      3.459063000
9        5.411463000     23.734948000      2.108998000
9        6.799968000     22.865094000     -0.003470000
9        8.580765000     22.482940000      1.285359000
9        7.311291000     20.607873000      2.624088000
9        5.400524000     21.045347000      1.618172000
9        6.345025000     20.282593000     -0.731698000
9        8.377437000     20.070456000      0.050216000
8        7.654413000     17.902431000      1.411054000
8        5.569882000     18.124242000      0.610143000
8        3.415917000     19.134863000     -0.741994000
1        2.752381000     18.547126000     -0.370523000
1        4.245075000     18.871872000     -0.289835000
1        9.177143000     18.574134000      1.975484000
8       10.029318000     18.889408000      2.346689000
1       10.025342000     19.831271000      2.155213000
*
