!TPSSh def2-TZVP opt d3 TightSCF SlowConv defgrid2
 
%pal
nprocs 20
end
 
%scf
MaxIter 1500
end
 
%maxcore 8000
 
!CPCM
%cpcm smd true
SMDsolvent "ACETONITRILE"
end
 
* xyz -1 2
6        4.790427000     -0.033865800     -0.529943200
8        5.449345000     -1.206924000     -0.894594600
8        4.978223000      1.323071000     -0.737377200
6        3.506687600     -0.338741600      0.376153800
6        2.222300000      0.400524800     -0.110681600
6        0.900506800     -0.386389800      0.175703000
6       -0.395261200      0.487294000      0.065549000
6       -1.705693600     -0.364773800     -0.068373600
6       -3.005136200      0.445344800      0.258164000
6       -4.319880200     -0.214526000     -0.270540800
9        3.741061800      0.055285800      1.689948800
9        2.125696800      1.616867800      0.483236600
9        2.314152400      0.589704000     -1.455769200
9        0.794028800     -1.413561400     -0.700839000
9        0.958350600     -0.884509000      1.435093400
9       -0.498373400      1.260265600      1.173340200
9       -0.299075000      1.289512600     -1.020910800
9       -1.641790400     -1.418189000      0.779523800
9       -1.792381400     -0.831391600     -1.336863600
9       -2.918792200      1.679227200     -0.295171200
9       -3.119771000      0.573779800      1.598579800
9       -4.383115600     -1.504377600      0.089127600
9       -5.365669800      0.430528600      0.260394200
9       -4.396020400     -0.128550600     -1.602941800
*
