!B3LYP def2-TZVP freq d3 TightSCF SlowConv defgrid2
 
%pal
nprocs 20
end
 
%scf
MaxIter 1500
end
 
%maxcore 8000
 
!CPCM
%cpcm smd true
SMDsolvent "ACETONITRILE"
end
 
* xyz -2 2
6        6.859799000     28.308382000      2.613032000
6        6.310756000     26.874593000      2.807087000
6        6.911482000     25.618673000      2.095870000
6        6.433969000     24.116596000      2.196213000
6        7.039291000     22.865127000      1.472613000
6        6.529752000     21.407102000      1.721235000
6        7.017643000     20.251552000      0.796699000
6        6.681268000     18.817959000      1.347801000
9        6.772201000     28.682229000      1.326845000
9        8.146326000     28.381730000      2.988996000
9        6.187107000     29.247227000      3.338770000
9        6.389030000     26.642705000      4.161124000
9        4.986278000     26.947333000      2.444177000
9        6.833388000     25.921108000      0.737862000
9        8.244323000     25.600662000      2.486975000
9        6.516703000     23.815995000      3.553335000
9        5.100047000     24.149386000      1.817844000
9        6.902190000     23.099921000      0.123750000
9        8.379976000     22.860404000      1.779336000
9        6.872433000     21.073759000      3.002140000
9        5.166437000     21.428223000      1.650777000
9        6.451781000     20.434429000     -0.438066000
9        8.367792000     20.398655000      0.622225000
8        7.611520000     18.226617000      1.908196000
8        5.495253000     18.457890000      1.171438000
8        3.244888000     19.245862000     -0.190165000
1        3.119582000     18.478231000     -0.760346000
1        4.087538000     19.064965000      0.284853000
*
