!B3LYP def2-TZVP freq d3 TightSCF SlowConv defgrid2
 
%pal
nprocs 20
end
 
%scf
MaxIter 1500
end
 
%maxcore 8000
 
!CPCM
%cpcm smd true
SMDsolvent "ACETONITRILE"
end
 
* xyz 0 1
6        4.788223000     -0.032696000     -0.223229000
8        5.165957000     -0.808294000     -1.226702000
8        5.325435000      0.962347000      0.169113000
6        3.482390000     -0.557973000      0.435970000
6        2.224404000      0.126072000     -0.189037000
6        0.862821000     -0.540707000      0.214541000
6       -0.375070000      0.394824000     -0.021252000
6       -1.740782000     -0.379295000     -0.031409000
6       -2.981170000      0.554331000      0.174914000
6       -4.348449000     -0.102338000     -0.205324000
9        3.366712000     -1.896918000      0.292501000
9        3.528918000     -0.268614000      1.751164000
9        2.221025000      1.419803000      0.192543000
9        2.342277000      0.075452000     -1.532846000
9        0.706204000     -1.663621000     -0.514203000
9        0.902962000     -0.874358000      1.518376000
9       -0.405166000      1.319976000      0.957438000
9       -0.230706000      1.019336000     -1.206294000
9       -1.735519000     -1.296913000      0.955536000
9       -1.864890000     -1.014650000     -1.212671000
9       -2.838619000      1.664400000     -0.576541000
9       -3.047149000      0.909814000      1.470651000
9       -4.480044000     -1.292543000      0.384800000
9       -5.333919000      0.695622000      0.210904000
9       -4.454490000     -0.256186000     -1.524314000
1        5.973177000     -0.438092000     -1.636807000
*
