!B3LYP def2-TZVP freq d3 TightSCF SlowConv defgrid2
 
%pal
nprocs 20
end
 
%scf
MaxIter 1500
end
 
%maxcore 8000
 
!CPCM
%cpcm smd true
SMDsolvent "ACETONITRILE"
end
 
* xyz -1 2
6        4.302457000     -0.561982000     -0.892431000
8        4.148918000     -1.473425000     -1.717311000
8        5.162957000      0.326591000     -0.793381000
6        3.199561000     -0.501741000      0.243662000
6        2.134245000      0.600182000      0.004067000
6        0.935690000      0.512792000      0.896439000
6       -0.439004000      1.029756000      0.601086000
6       -1.430246000     -0.088742000      0.123807000
6       -2.941761000      0.304207000      0.203031000
6       -3.885018000     -0.594638000     -0.658284000
9        2.516982000     -1.683303000      0.350683000
9        3.770931000     -0.274030000      1.465737000
9        2.728302000      1.827139000      0.140750000
9        1.717496000      0.513132000     -1.291981000
9        1.099448000      0.014297000      2.110374000
9       -0.961048000      1.583634000      1.729009000
9       -0.377831000      1.983027000     -0.356532000
9       -1.241452000     -1.179295000      0.898350000
9       -1.115149000     -0.411673000     -1.146487000
9       -3.104722000      1.578747000     -0.207131000
9       -3.346078000      0.207529000      1.483965000
9       -3.657716000     -1.886389000     -0.406774000
9       -5.152602000     -0.313636000     -0.347551000
9       -3.706984000     -0.365064000     -1.958715000
*
