!B3LYP def2-TZVP freq d3 TightSCF SlowConv defgrid2
 
%pal
nprocs 20
end
 
%scf
MaxIter 1500
end
 
%maxcore 8000
 
!CPCM
%cpcm smd true
SMDsolvent "ACETONITRILE"
end
 
* xyz -1 2
6        7.924372000     27.241875000      2.905681000
6        6.616982000     26.670678000      2.266342000
6        6.683450000     25.149310000      1.909250000
6        5.296776000     24.472529000      1.625939000
6        5.403271000     23.118049000      0.988934000
6        5.576561000     21.786483000      1.652605000
6        6.769969000     20.942864000      1.114299000
6        7.111969000     19.701215000      2.029724000
9        8.989550000     26.926978000      2.165261000
9        8.097594000     26.769459000      4.139814000
9        7.825214000     28.571839000      2.970495000
9        5.611703000     26.893346000      3.136646000
9        6.377050000     27.368859000      1.139574000
9        7.445878000     25.016524000      0.802151000
9        7.274410000     24.481549000      2.921567000
9        4.619646000     24.388043000      2.793697000
9        4.608745000     25.289628000      0.785856000
9        5.458807000     23.121480000     -0.333315000
9        5.760417000     21.976185000      2.985022000
9        4.433173000     21.050067000      1.499619000
9        6.463181000     20.545954000     -0.156925000
9        7.835630000     21.789803000      1.007723000
8        8.060369000     19.863188000      2.800925000
8        6.360877000     18.719001000      1.857179000
8        4.400020000     18.156145000     -0.000002000
1        4.221685000     18.975745000     -0.475572000
1        5.095606000     18.401791000      0.649493000
*
