!TPSSh def2-TZVP freq d3 TightSCF SlowConv defgrid2
 
%pal
nprocs 20
end
 
%scf
MaxIter 1500
end
 
%maxcore 8000
 
!CPCM
%cpcm smd true
SMDsolvent "ACETONITRILE"
end
 
* xyz 0 2
6        4.484661000      0.335454000      0.248514000
8        5.273086000     -0.373078000     -0.548897000
8        4.683909000      1.438793000      0.678604000
6        3.184700000     -0.445570000      0.583133000
6        2.035827000     -0.081227000     -0.409878000
6        0.782130000     -1.016288000     -0.349807000
6       -0.410561000     -0.426256000     -1.035991000
6       -1.858359000     -0.660195000     -0.701033000
6       -2.488258000      0.503990000      0.127879000
6       -3.996829000      0.369811000      0.494193000
9        3.397314000     -1.782092000      0.544653000
9        2.801213000     -0.110373000      1.834237000
9        1.643232000      1.185791000     -0.141623000
9        2.536838000     -0.115365000     -1.667829000
9        1.127446000     -2.210280000     -0.921722000
9        0.481906000     -1.262162000      0.948757000
9       -0.182907000      0.241325000     -2.156596000
9       -1.989268000     -1.809402000      0.004263000
9       -2.558722000     -0.775470000     -1.858864000
9       -2.338124000      1.645692000     -0.581931000
9       -1.797657000      0.618599000      1.283908000
9       -4.215444000     -0.724362000      1.229218000
9       -4.360818000      1.442215000      1.208439000
9       -4.755272000      0.314420000     -0.603228000
1        6.072861000      0.154547000     -0.753914000
*
