!TPSSh def2-TZVP freq d3 TightSCF SlowConv defgrid2
 
%pal
nprocs 20
end
 
%scf
MaxIter 1500
end
 
%maxcore 8000
 
!CPCM
%cpcm smd true
SMDsolvent "ACETONITRILE"
end
 
* xyz 0 1
6        4.787978000     -0.031642000     -0.227908000
8        5.164428000     -0.826267000     -1.220449000
8        5.327449000      0.972628000      0.148858000
6        3.483805000     -0.547478000      0.438770000
6        2.222374000      0.125538000     -0.190029000
6        0.863120000     -0.539879000      0.217814000
6       -0.375873000      0.390429000     -0.020701000
6       -1.739712000     -0.383465000     -0.028415000
6       -2.980012000      0.547426000      0.184294000
6       -4.346227000     -0.096282000     -0.217860000
9        3.367498000     -1.891327000      0.314432000
9        3.532910000     -0.240279000      1.752496000
9        2.213071000      1.424926000      0.182361000
9        2.341114000      0.066756000     -1.535982000
9        0.705256000     -1.669311000     -0.505675000
9        0.906554000     -0.867676000      1.525896000
9       -0.409082000      1.320727000      0.956974000
9       -0.231277000      1.013399000     -1.209479000
9       -1.729221000     -1.305214000      0.958317000
9       -1.868278000     -1.019201000     -1.211778000
9       -2.828979000      1.673316000     -0.546449000
9       -3.053551000      0.881748000      1.487868000
9       -4.486992000     -1.301122000      0.344409000
9       -5.334147000      0.695462000      0.210829000
9       -4.446208000     -0.220271000     -1.542486000
1        5.968534000     -0.454162000     -1.638283000
*
