!TPSSh def2-TZVP freq d3 TightSCF SlowConv defgrid2
 
%pal
nprocs 20
end
 
%scf
MaxIter 1500
end
 
%maxcore 8000
 
!CPCM
%cpcm smd true
SMDsolvent "ACETONITRILE"
end
 
* xyz -1 1
6        6.897484000     27.977234000      2.960231000
6        6.129566000     26.706462000      2.473279000
6        7.052502000     25.496374000      2.107192000
6        6.293324000     24.125172000      2.067052000
6        7.063080000     23.010724000      1.277163000
6        6.580481000     21.559390000      1.606022000
6        6.996415000     20.471725000      0.575600000
6        6.887710000     19.012743000      1.168325000
9        7.882455000     28.291566000      2.112457000
9        7.414877000     27.786462000      4.175542000
9        6.040526000     29.001575000      3.019895000
9        5.279129000     26.345586000      3.459045000
9        5.412454000     27.051699000      1.385389000
9        7.602872000     25.738540000      0.897818000
9        8.043117000     25.413391000      3.021254000
9        6.098803000     23.717114000      3.339613000
9        5.088662000     24.313780000      1.484680000
9        6.895490000     23.246796000     -0.043530000
9        8.379991000     23.111387000      1.568715000
9        7.098690000     21.217807000      2.814590000
9        5.230629000     21.580368000      1.716990000
9        6.197168000     20.606154000     -0.526829000
9        8.269425000     20.758393000      0.170111000
8        7.961795000     18.444779000      1.390575000
8        5.707348000     18.633533000      1.346085000
8        3.190536000     19.276419000      0.431646000
1        2.845115000     18.379986000      0.328672000
1        4.119111000     19.142161000      0.733035000
*
