!TPSSh def2-TZVP freq d3 TightSCF SlowConv defgrid2
 
%pal
nprocs 20
end
 
%scf
MaxIter 1500
end
 
%maxcore 8000
 
!CPCM
%cpcm smd true
SMDsolvent "ACETONITRILE"
end
 
* xyz 0 2
6        4.781193000     -0.041199000     -0.267041000
8        5.137647000     -0.854864000     -1.251758000
8        5.331978000      0.966341000      0.083913000
6        3.485705000     -0.540411000      0.428739000
6        2.218133000      0.138208000     -0.182001000
6        0.863888000     -0.528655000      0.238853000
6       -0.379264000      0.401677000      0.021981000
6       -1.739760000     -0.376000000      0.020737000
6       -2.991335000      0.532828000      0.239131000
6       -4.277170000     -0.161654000     -0.172435000
9        3.357019000     -1.884248000      0.318130000
9        3.561060000     -0.223109000      1.738983000
9        2.215187000      1.435742000      0.195792000
9        2.321565000      0.085515000     -1.529764000
9        0.698393000     -1.654195000     -0.489470000
9        0.924455000     -0.864511000      1.544484000
9       -0.401349000      1.324694000      1.006440000
9       -0.247594000      1.035233000     -1.163440000
9       -1.714632000     -1.310496000      0.997181000
9       -1.876696000     -0.999218000     -1.170141000
9       -2.869340000      1.654761000     -0.508249000
9       -3.034980000      0.910491000      1.548333000
9       -4.511156000     -1.323849000      0.418692000
9       -5.343250000      0.622400000     -0.151770000
1        5.940856000     -0.498149000     -1.684553000
*
