!B3LYP def2-TZVP opt d3 TightSCF SlowConv defgrid2
 
%pal
nprocs 20
end
 
%scf
MaxIter 1500
end
 
%maxcore 8000
 
!CPCM
%cpcm smd true
SMDsolvent "ACETONITRILE"
end
 
* xyz -2 2
6        7.312757000     27.827789000      2.877596000
6        6.822739000     26.370505000      3.068974000
6        7.236574000     25.214832000      2.103762000
6        6.796224000     23.703591000      2.195781000
6        7.201952000     22.526603000      1.241300000
6        6.752332000     21.043441000      1.448863000
6        7.068050000     19.956746000      0.375378000
6        6.728569000     18.498681000      0.832029000
9        6.912465000     28.313813000      1.693257000
9        8.651090000     27.893709000      2.934884000
9        6.834772000     28.671956000      3.831099000
9        7.232101000     26.014150000      4.329326000
9        5.452852000     26.444719000      3.052118000
9        6.820726000     25.636669000      0.848501000
9        8.621994000     25.197305000      2.143667000
9        7.211985000     23.296141000      3.459821000
9        5.409606000     23.741739000      2.160386000
9        6.763107000     22.891464000     -0.013023000
9        8.580084000     22.508278000      1.236983000
9        7.305876000     20.621125000      2.625375000
9        5.392395000     21.046986000      1.605577000
9        6.371514000     20.276465000     -0.756878000
9        8.397324000     20.058276000      0.054923000
8        7.648688000     17.880331000      1.402264000
8        5.562896000     18.121540000      0.604283000
8        3.370030000     19.012701000     -0.812369000
1        2.708716000     18.413018000     -0.447158000
1        4.201434000     18.777941000     -0.344572000
1        9.201207000     18.500788000      1.994430000
8       10.056490000     18.802427000      2.375109000
1       10.077667000     19.747111000      2.182535000
*
