!TPSSh def2-TZVP freq d3 TightSCF SlowConv defgrid2
 
%pal
nprocs 20
end
 
%scf
MaxIter 1500
end
 
%maxcore 8000
 
!CPCM
%cpcm smd true
SMDsolvent "ACETONITRILE"
end
 
* xyz -1 2
6        7.945172000     27.278987000      3.003814000
6        6.647486000     26.736739000      2.323956000
6        6.706563000     25.226105000      1.926464000
6        5.319457000     24.558856000      1.634070000
6        5.415929000     23.221888000      0.959437000
6        5.541775000     21.861991000      1.576197000
6        6.719188000     21.004001000      1.026500000
6        7.049055000     19.752395000      1.927438000
9        9.025410000     26.967741000      2.279603000
9        8.087954000     26.778749000      4.232961000
9        7.860662000     28.610494000      3.095382000
9        5.623938000     26.946754000      3.180252000
9        6.434622000     27.468769000      1.210506000
9        7.463176000     25.119363000      0.809361000
9        7.305794000     24.528914000      2.917424000
9        4.647264000     24.443573000      2.804094000
9        4.628482000     25.404185000      0.819317000
9        5.491616000     23.266671000     -0.365597000
9        5.718019000     22.000274000      2.920231000
9        4.375904000     21.168527000      1.389396000
9        6.405792000     20.618906000     -0.248843000
9        7.795155000     21.844628000      0.920217000
8        8.072134000     19.846101000      2.614908000
8        6.211668000     18.826428000      1.830982000
8        4.216648000     18.063593000      0.089421000
1        4.666040000     17.344465000     -0.373583000
1        4.906227000     18.429308000      0.691574000
*
