!r2scanh def2-TZVP freq d3 TightSCF SlowConv defgrid2
 
%pal
nprocs 20
end
 
%scf
MaxIter 1500
end
 
%maxcore 8000
 
!CPCM
%cpcm smd true
SMDsolvent "ACETONITRILE"
end
 
* xyz 0 1
6        4.745389000     -0.036840000     -0.242693000
8        5.124956000     -0.870399000     -1.191299000
8        5.268269000      0.988817000      0.078667000
6        3.453636000     -0.528993000      0.448632000
6        2.205280000      0.139762000     -0.190230000
6        0.858998000     -0.531533000      0.216407000
6       -0.371309000      0.394853000     -0.020099000
6       -1.721139000     -0.385738000     -0.035686000
6       -2.951528000      0.538488000      0.193291000
6       -4.305463000     -0.101987000     -0.217948000
9        3.323250000     -1.863978000      0.352260000
9        3.510955000     -0.192077000      1.744847000
9        2.188463000      1.431067000      0.175146000
9        2.330963000      0.071954000     -1.526448000
9        0.703238000     -1.650161000     -0.507651000
9        0.906355000     -0.857399000      1.515717000
9       -0.412285000      1.312318000      0.956887000
9       -0.224348000      1.016745000     -1.199176000
9       -1.703156000     -1.313914000      0.932630000
9       -1.850903000     -0.997579000     -1.221624000
9       -2.800047000      1.666886000     -0.517046000
9       -3.026654000      0.845918000      1.493966000
9       -4.428043000     -1.311261000      0.318028000
9       -5.290449000      0.668172000      0.228376000
9       -4.406007000     -0.197416000     -1.535794000
1        5.926106000     -0.516923000     -1.621337000
*
